
;this file is automatically generated: Mon Nov 02 10:43:04 CST 2020

;declarations generated

(declare-fun oclExcludes ( Int Int) Bool)
(declare-fun Cardinality ( Int) Int)
(declare-fun type_d17b3186_ffe1_4e75_bb40_38d287f3b3d2_Class2 ( Int) Bool)
(declare-fun type_d17b3186_ffe1_4e75_bb40_38d287f3b3d2_Class1 ( Int) Bool)
(declare-fun type_d17b3186_ffe1_4e75_bb40_38d287f3b3d2_Class0 ( Int) Bool)
(declare-fun type_d17b3186_ffe1_4e75_bb40_38d287f3b3d2_Class6 ( Int) Bool)
(declare-fun type_d17b3186_ffe1_4e75_bb40_38d287f3b3d2_Class5 ( Int) Bool)
(declare-fun type_d17b3186_ffe1_4e75_bb40_38d287f3b3d2_Class4 ( Int) Bool)
(declare-fun type_d17b3186_ffe1_4e75_bb40_38d287f3b3d2_Class3 ( Int) Bool)
(declare-fun type_d17b3186_ffe1_4e75_bb40_38d287f3b3d2_Class9 ( Int) Bool)
(declare-fun type_d17b3186_ffe1_4e75_bb40_38d287f3b3d2_Class8 ( Int) Bool)
(declare-fun type_d17b3186_ffe1_4e75_bb40_38d287f3b3d2_Class7 ( Int) Bool)
(declare-fun type_d17b3186_ffe1_4e75_bb40_38d287f3b3d2_Class17 ( Int) Bool)
(declare-fun type_d17b3186_ffe1_4e75_bb40_38d287f3b3d2_Class16 ( Int) Bool)
(declare-fun type_d17b3186_ffe1_4e75_bb40_38d287f3b3d2_Class15 ( Int) Bool)
(declare-fun type_d17b3186_ffe1_4e75_bb40_38d287f3b3d2_Class14 ( Int) Bool)
(declare-fun type_d17b3186_ffe1_4e75_bb40_38d287f3b3d2_Class13 ( Int) Bool)
(declare-fun type_d17b3186_ffe1_4e75_bb40_38d287f3b3d2_Class12 ( Int) Bool)
(declare-fun type_d17b3186_ffe1_4e75_bb40_38d287f3b3d2_Class11 ( Int) Bool)
(declare-fun type_d17b3186_ffe1_4e75_bb40_38d287f3b3d2_Class10 ( Int) Bool)
(declare-fun oclSelect ( Int Bool) Int)
(declare-fun Enum0 ( Int) Int)
(declare-fun Enum1 ( Int) Int)
(declare-fun Enum2 ( Int) Int)
(declare-fun obj_f1823b4a_7c79_40ed_b1f8_37675017af7f ( Int) Int)
(declare-fun container_ ( Int) Int)
(declare-fun oclIncludes ( Int Int) Bool)
(declare-fun ObjAt ( Int Int) Int)

;formula(s) generated
(assert (forall ((p Int)) (=> ( type_d17b3186_ffe1_4e75_bb40_38d287f3b3d2_Class15 p )  (and (>= ( Enum1 ( obj_f1823b4a_7c79_40ed_b1f8_37675017af7f p )  )  0) (<= ( Enum1 ( obj_f1823b4a_7c79_40ed_b1f8_37675017af7f p )  )  5)))))
(assert (! (forall ((v Int)) (=> ( type_d17b3186_ffe1_4e75_bb40_38d287f3b3d2_Class15 v )  (= ( Enum1 ( obj_f1823b4a_7c79_40ed_b1f8_37675017af7f v )  )  5))):named l0))
(assert (! (forall ((v Int)) (=> ( type_d17b3186_ffe1_4e75_bb40_38d287f3b3d2_Class15 v )  (= ( Enum1 ( obj_f1823b4a_7c79_40ed_b1f8_37675017af7f v )  )  4))):named l1))
(assert (! (exists ((o Int)) ( type_d17b3186_ffe1_4e75_bb40_38d287f3b3d2_Class0 ( obj_f1823b4a_7c79_40ed_b1f8_37675017af7f o )  ) ):named c0))
(assert (! (exists ((o Int)) ( type_d17b3186_ffe1_4e75_bb40_38d287f3b3d2_Class1 ( obj_f1823b4a_7c79_40ed_b1f8_37675017af7f o )  ) ):named c1))
(assert (! (exists ((o Int)) (and (and ( type_d17b3186_ffe1_4e75_bb40_38d287f3b3d2_Class10 ( obj_f1823b4a_7c79_40ed_b1f8_37675017af7f o )  )  ( type_d17b3186_ffe1_4e75_bb40_38d287f3b3d2_Class14 ( obj_f1823b4a_7c79_40ed_b1f8_37675017af7f o )  ) ) ( type_d17b3186_ffe1_4e75_bb40_38d287f3b3d2_Class16 ( obj_f1823b4a_7c79_40ed_b1f8_37675017af7f o )  ) )):named c2))
(assert (! (exists ((o Int)) ( type_d17b3186_ffe1_4e75_bb40_38d287f3b3d2_Class11 ( obj_f1823b4a_7c79_40ed_b1f8_37675017af7f o )  ) ):named c3))
(assert (! (exists ((o Int)) ( type_d17b3186_ffe1_4e75_bb40_38d287f3b3d2_Class12 ( obj_f1823b4a_7c79_40ed_b1f8_37675017af7f o )  ) ):named c4))
(assert (! (exists ((o Int)) ( type_d17b3186_ffe1_4e75_bb40_38d287f3b3d2_Class13 ( obj_f1823b4a_7c79_40ed_b1f8_37675017af7f o )  ) ):named c5))
(assert (! (exists ((o Int)) ( type_d17b3186_ffe1_4e75_bb40_38d287f3b3d2_Class14 ( obj_f1823b4a_7c79_40ed_b1f8_37675017af7f o )  ) ):named c6))
(assert (! (exists ((o Int)) ( type_d17b3186_ffe1_4e75_bb40_38d287f3b3d2_Class15 ( obj_f1823b4a_7c79_40ed_b1f8_37675017af7f o )  ) ):named c7))
(assert (! (exists ((o Int)) (and ( type_d17b3186_ffe1_4e75_bb40_38d287f3b3d2_Class16 ( obj_f1823b4a_7c79_40ed_b1f8_37675017af7f o )  )  ( type_d17b3186_ffe1_4e75_bb40_38d287f3b3d2_Class14 ( obj_f1823b4a_7c79_40ed_b1f8_37675017af7f o )  ) )):named c8))
(assert (! (exists ((o Int)) ( type_d17b3186_ffe1_4e75_bb40_38d287f3b3d2_Class17 ( obj_f1823b4a_7c79_40ed_b1f8_37675017af7f o )  ) ):named c9))
(assert (! (exists ((o Int)) ( type_d17b3186_ffe1_4e75_bb40_38d287f3b3d2_Class2 ( obj_f1823b4a_7c79_40ed_b1f8_37675017af7f o )  ) ):named c10))
(assert (! (exists ((o Int)) ( type_d17b3186_ffe1_4e75_bb40_38d287f3b3d2_Class3 ( obj_f1823b4a_7c79_40ed_b1f8_37675017af7f o )  ) ):named c11))
(assert (! (exists ((o Int)) ( type_d17b3186_ffe1_4e75_bb40_38d287f3b3d2_Class4 ( obj_f1823b4a_7c79_40ed_b1f8_37675017af7f o )  ) ):named c12))
(assert (! (exists ((o Int)) ( type_d17b3186_ffe1_4e75_bb40_38d287f3b3d2_Class5 ( obj_f1823b4a_7c79_40ed_b1f8_37675017af7f o )  ) ):named c13))
(assert (! (exists ((o Int)) ( type_d17b3186_ffe1_4e75_bb40_38d287f3b3d2_Class6 ( obj_f1823b4a_7c79_40ed_b1f8_37675017af7f o )  ) ):named c14))
(assert (! (exists ((o Int)) ( type_d17b3186_ffe1_4e75_bb40_38d287f3b3d2_Class7 ( obj_f1823b4a_7c79_40ed_b1f8_37675017af7f o )  ) ):named c15))
(assert (! (exists ((o Int)) ( type_d17b3186_ffe1_4e75_bb40_38d287f3b3d2_Class8 ( obj_f1823b4a_7c79_40ed_b1f8_37675017af7f o )  ) ):named c16))
(assert (! (exists ((o Int)) ( type_d17b3186_ffe1_4e75_bb40_38d287f3b3d2_Class9 ( obj_f1823b4a_7c79_40ed_b1f8_37675017af7f o )  ) ):named c17))

 ;end of formula 